
Gurobi 8.1.1 (win64) logging started 11/23/19 13:24:29

Changed value of parameter LogFile to logs/miss/max/miss-06-30-2.log
   Prev: gurobi.log  Default: 
Changed value of parameter LogToConsole to 0
   Prev: 1  Min: 0  Max: 1  Default: 1
Changed value of parameter TimeLimit to 3600.0
   Prev: 1e+100  Min: 0.0  Max: 1e+100  Default: 1e+100
Optimize a model with 569 rows, 260 columns and 2072 nonzeros
Variable types: 0 continuous, 260 integer (252 binary)
Coefficient statistics:
  Matrix range     [1e+00, 3e+02]
  Objective range  [1e+00, 1e+00]
  Bounds range     [1e+00, 1e+00]
  RHS range        [1e+00, 3e+02]
Found heuristic solution: objective 1.0000000
Presolve time: 0.01s
Presolved: 569 rows, 260 columns, 2072 nonzeros
Variable types: 0 continuous, 260 integer (252 binary)

Root relaxation: objective 9.000000e+00, 79 iterations, 0.00 seconds

    Nodes    |    Current Node    |     Objective Bounds      |     Work
 Expl Unexpl |  Obj  Depth IntInf | Incumbent    BestBd   Gap | It/Node Time

H    0     0                       9.0000000  252.00000  2700%     -    0s
     0     0          -    0         9.00000    9.00000  0.00%     -    0s

Explored 0 nodes (218 simplex iterations) in 0.02 seconds
Thread count was 4 (of 4 available processors)

Solution count 2: 9 1 

Optimal solution found (tolerance 1.00e-04)
Best objective 9.000000000000e+00, best bound 9.000000000000e+00, gap 0.0000%

Gurobi 8.1.1 (win64) logging started 11/23/19 13:24:29

Changed value of parameter LogFile to logs/miss/max/miss-06-30-2.log
   Prev: gurobi.log  Default: 
Changed value of parameter LogToConsole to 0
   Prev: 1  Min: 0  Max: 1  Default: 1
Changed value of parameter TimeLimit to 3600.0
   Prev: 1e+100  Min: 0.0  Max: 1e+100  Default: 1e+100
Optimize a model with 429 rows, 196 columns and 1554 nonzeros
Variable types: 0 continuous, 196 integer (189 binary)
Coefficient statistics:
  Matrix range     [1e+00, 3e+02]
  Objective range  [1e+00, 1e+00]
  Bounds range     [1e+00, 1e+00]
  RHS range        [1e+00, 3e+02]
Found heuristic solution: objective -0.0000000
Presolve time: 0.00s
Presolved: 429 rows, 196 columns, 1554 nonzeros
Variable types: 0 continuous, 196 integer (189 binary)

Root relaxation: objective 9.000000e+00, 77 iterations, 0.00 seconds

    Nodes    |    Current Node    |     Objective Bounds      |     Work
 Expl Unexpl |  Obj  Depth IntInf | Incumbent    BestBd   Gap | It/Node Time

     0     0    9.00000    0    2   -0.00000    9.00000      -     -    0s
H    0     0                       8.0000000    9.00000  12.5%     -    0s
     0     0    9.00000    0    8    8.00000    9.00000  12.5%     -    0s
     0     0    9.00000    0    8    8.00000    9.00000  12.5%     -    0s
     0     0    9.00000    0   13    8.00000    9.00000  12.5%     -    0s
     0     0    9.00000    0    2    8.00000    9.00000  12.5%     -    0s
     0     0    9.00000    0    2    8.00000    9.00000  12.5%     -    0s
     0     0    9.00000    0    2    8.00000    9.00000  12.5%     -    0s
     0     0    9.00000    0    2    8.00000    9.00000  12.5%     -    0s
     0     2    9.00000    0    2    8.00000    9.00000  12.5%     -    0s
H    3     3                       9.0000000    9.00000  0.00%   0.0    0s

Explored 3 nodes (634 simplex iterations) in 0.14 seconds
Thread count was 4 (of 4 available processors)

Solution count 3: 9 8 -0 

Optimal solution found (tolerance 1.00e-04)
Best objective 9.000000000000e+00, best bound 9.000000000000e+00, gap 0.0000%

Gurobi 8.1.1 (win64) logging started 11/23/19 13:24:29

Changed value of parameter LogFile to logs/miss/max/miss-06-30-2.log
   Prev: gurobi.log  Default: 
Changed value of parameter LogToConsole to 0
   Prev: 1  Min: 0  Max: 1  Default: 1
Changed value of parameter TimeLimit to 3600.0
   Prev: 1e+100  Min: 0.0  Max: 1e+100  Default: 1e+100
Optimize a model with 309 rows, 141 columns and 1110 nonzeros
Variable types: 0 continuous, 141 integer (135 binary)
Coefficient statistics:
  Matrix range     [1e+00, 3e+02]
  Objective range  [1e+00, 1e+00]
  Bounds range     [1e+00, 1e+00]
  RHS range        [1e+00, 3e+02]
Found heuristic solution: objective -0.0000000
Presolve time: 0.00s
Presolved: 309 rows, 141 columns, 1110 nonzeros
Variable types: 0 continuous, 141 integer (135 binary)

Root relaxation: objective 9.000000e+00, 72 iterations, 0.00 seconds

    Nodes    |    Current Node    |     Objective Bounds      |     Work
 Expl Unexpl |  Obj  Depth IntInf | Incumbent    BestBd   Gap | It/Node Time

     0     0    9.00000    0    2   -0.00000    9.00000      -     -    0s
H    0     0                       8.0000000    9.00000  12.5%     -    0s
     0     0    9.00000    0    2    8.00000    9.00000  12.5%     -    0s
     0     0    9.00000    0    7    8.00000    9.00000  12.5%     -    0s
     0     0    9.00000    0    2    8.00000    9.00000  12.5%     -    0s
     0     0    9.00000    0    4    8.00000    9.00000  12.5%     -    0s
     0     0    9.00000    0   10    8.00000    9.00000  12.5%     -    0s
     0     0    9.00000    0   10    8.00000    9.00000  12.5%     -    0s
     0     2    9.00000    0    6    8.00000    9.00000  12.5%     -    0s
H    7     5                       9.0000000    9.00000  0.00%   0.0    0s

Cutting planes:
  Gomory: 1
  Zero half: 1

Explored 7 nodes (1033 simplex iterations) in 0.14 seconds
Thread count was 4 (of 4 available processors)

Solution count 3: 9 8 -0 

Optimal solution found (tolerance 1.00e-04)
Best objective 9.000000000000e+00, best bound 9.000000000000e+00, gap 0.0000%
